n = 14;
w = 19;
h = 19;
%ws = [4, 3, 3, 3, 3, 3, 3, 3, 3, 3, 3, 3, 4, 4];
%hs = [7, 3, 4, 5, 6, 7, 8, 9, 10, 11, 13, 19, 5, 6];

%per = [22,12,14,16,18,20,19,24,26,28,32,44,18,20];
%per = [12,14,16,18,18,19,20,20,22,24,26,28,32,44];

ws = [3, 3, 3, 3, 4, 3, 4, 4, 3, 3, 3, 3, 3, 3];
hs = [3, 4, 5, 6, 5, 7, 6, 7, 8, 9, 10, 11, 13, 19];